Maximize
1.0 x0 
Subject To
1.0 x0  <= 11
1.0 x0  >= -1
1.0 x0  <= 11
1.0 x0  >= -1
1.0 x0  <= 11
1.0 x0  >= -1
1.0 x0  <= 11
1.0 x0  >= -1
1.0 x0  <= 11
1.0 x0  >= -1
1.0 x0  <= 11
1.0 x0  >= -1
1.0 x0  <= 11
1.0 x0  >= -1
1.0 x0  <= 11
1.0 x0  >= -1
1.0 x0  <= 11
1.0 x0  >= -1
1.0 x0  <= 11
1.0 x0  >= -1
1.0 x0  <= 11
1.0 x0  >= -1
1.0 x0  <= 11
1.0 x0  >= -1
1.0 x0  <= 11
1.0 x0  >= -1
1.0 x0  <= 11
1.0 x0  >= -1
1.0 x0  <= 11
1.0 x0  >= -1
-1.0 x0  <= 11
-1.0 x0  >= -1
-1.0 x0  <= 11
-1.0 x0  >= -1
-1.0 x0  <= 11
-1.0 x0  >= -1
-1.0 x0  <= 11
-1.0 x0  >= -1
x4 - x6 = 0
x5 - x7 = 0
x8 - x9 = 0
x10 - x11 = 0
x12 - x15 = 0
x13 - x14 = 0
End
